p cnf 16 31
a 2 14 0
e 1 3 4 5 6 7 8 9 10 11 12 13 15 16 0
3 1 0
3 2 0
-1 -2 -3 0
7 -5 0
7 6 0
5 -6 -7 0
-4 7 -8 0
4 -7 -8 0
-4 -7 8 0
4 7 8 0
-9 -3 0
-9 8 0
3 -8 9 0
11 -6 0
11 -10 0
6 10 -11 0
-9 -11 -12 0
9 11 -12 0
-9 11 12 0
9 -11 12 0
-13 14 -15 0
13 -14 -15 0
-13 -14 15 0
13 14 15 0
16 12 0
16 15 0
-12 -15 -16 0
11 1 15 12 10 0
10 -9 -14 -1 -12 4 0
11 14 13 -9 -10 0
16 0
